InboundTrucks  = 20;
OutboundTrucks = 20;
InboundDoors   = 15;
OutboundDoors  = 15;
ReleaseTime    = [4,18,2,8,35,83,117,77,80,103,68,120,46,32,82,23,69,75,97,117];
UnloadTime     = [5,8,6,13,22,35,15,23,33,21,28,30,34,22,34,28,16,29,11,10];
LoadTime       = [12,15,14,8,14,10,13,23,14,13,18,23,12,22,12,19,21,15,22,11];
TransferTime   = [| 3,0,0,2,0,0,0,0,0,0,0,0,0,0,0,0,0,0,0,0 | 0,0,3,3,0,0,0,0,0,0,0,0,0,0,0,0,0,0,0,0 | 1,0,4,3,0,0,0,0,0,0,0,0,0,0,0,0,0,0,0,0 | 0,3,0,0,0,0,0,0,0,0,0,0,0,0,0,0,0,0,0,0 | 7,5,7,0,0,0,7,0,0,0,3,0,0,7,0,0,0,0,7,3 | 7,0,0,0,0,0,0,0,0,0,0,0,0,0,0,0,0,0,0,0 | 6,4,0,0,0,0,0,0,3,3,0,3,0,0,0,8,3,4,6,0 | 0,5,0,0,8,0,0,7,0,6,0,0,0,5,0,0,4,0,0,0 | 0,0,0,5,0,0,0,4,0,0,0,8,8,0,6,0,0,0,5,0 | 4,3,0,8,0,0,6,0,0,0,0,0,0,0,0,0,0,0,0,0 | 0,7,8,0,0,4,0,3,5,0,8,6,0,8,0,0,0,0,0,0 | 0,0,4,0,0,0,0,0,5,0,0,0,8,8,0,0,6,0,0,0 | 0,8,0,8,6,3,0,0,0,7,0,0,0,8,0,4,0,0,0,0 | 0,7,0,0,6,0,3,7,0,0,4,0,6,5,3,0,8,0,0,0 | 0,0,0,3,0,8,0,0,8,0,4,0,0,0,0,0,0,4,6,6 | 0,4,0,0,3,0,4,7,0,7,0,0,0,0,4,4,5,3,4,0 | 0,4,0,4,3,0,0,0,0,3,0,0,4,0,0,0,0,6,4,0 | 0,0,0,0,0,7,0,6,0,3,0,0,0,0,7,5,0,0,0,0 | 3,5,0,8,8,0,0,8,0,0,0,0,0,0,0,0,0,0,0,5 | 0,0,0,0,0,3,5,0,0,0,0,0,8,0,0,0,0,8,0,0 |];
